=obj= 52200.00000000
0	x#AsdLw;;U2	1.0
1	x#AsdRsdg;;U2	1.0
2	x#AsdShl;;U6	1.0
3	x#AsdZvg;;U2	1.0
4	x#AsdzUt;;U2	1.0
5	x#BdGvc;;U2	1.0
6	x#new0_3_I3;;U3	1.0
7	x#new0_6_I5;;U1	1.0
8	x#new0_8_I8;;U2	1.0
9	x#new0_18_I18;;U2	1.0
10	x#new0_20_I21;;U4	1.0
11	x#new1_8_I30;;U2	1.0
12	x#new1_13_I33;;U1	1.0
13	x#new1_18_I38;;U2	1.0
14	x#new2_3_I42;;U1	1.0
15	x#new2_3_I43;;U2	1.0
16	x#new2_6_I45;;U2	1.0
17	x#new3_6_I62;;U2	1.0
18	x#new3_8_I65;;U3	1.0
19	x#new3_9_I67;;U3	1.0
20	x#new3_15_I72;;U2	1.0
21	x#new5_8_I80;;U2	1.0
22	x#new5_16_I88;;U1	1.0
23	x#new5_17_I89;;U1	1.0
24	x#new5_20_I94;;U5	1.0
25	x#new6_8_I98;;U2	1.0
26	x#new6_9_I99;;U1	1.0
27	x#new6_14_I104;;U7	1.0
28	x#new6_18_I108;;U2	1.0
29	x#new6_18_I110;;U3	1.0
30	x#new6_22_I112;;U3	1.0
31	x#new7_12_I116;;U2	1.0
32	x#new7_20_I129;;U5	1.0
33	x#new8_9_I131;;U2	1.0
34	x#new8_12_I133;;U3	1.0
35	x#new8_15_I140;;U1	1.0
36	x#new8_16_I141;;U2	1.0
37	x#new8_17_I142;;U2	1.0
38	x#new8_18_I143;;U3	1.0
39	x#new8_20_I145;;U2	1.0
40	x#new9_12_I148;;U5	1.0
41	x#new9_12_I152;;U1	1.0
42	x#new9_16_I156;;U2	1.0
43	x#new9_16_I157;;U1	1.0
44	x#new9_17_I158;;U2	1.0
45	x#new9_20_I161;;U1	1.0
46	x#new12_13_I163;;U1	1.0
47	x#new16_18_I210;;U2	1.0
48	x#new18_20_I216;;U2	1.0
49	x_q#e0#442	1.0
50	x_q#e1#442	1.0
51	x_q#e2#36	1.0
52	x_q#e3#36	1.0
53	x_q#e4#34	1.0
54	x_q#e5#34	1.0
55	x_q#e6#34	1.0
56	x_q#e7#34	1.0
57	x_q#e8#40	1.0
58	x_q#e9#40	1.0
59	x_q#e10#38	1.0
60	x_q#e11#38	1.0
61	x_q#e12#1433	1.0
62	x_q#e13#1433	1.0
63	x_q#e14#158	1.0
64	x_q#e15#158	1.0
65	x_q#e16#33	1.0
66	x_q#e17#33	1.0
67	x_q#e18#50	1.0
68	x_q#e19#50	1.0
69	x_q#e20#240	1.0
70	x_q#e21#240	1.0
71	x_q#e22#38	1.0
72	x_q#e23#38	1.0
73	x_q#e24#38	1.0
74	x_q#e25#38	1.0
75	x_q#e26#45	1.0
76	x_q#e27#45	1.0
77	x_q#e28#31	1.0
78	x_q#e29#31	1.0
79	x_q#e30#29	1.0
80	x_q#e31#29	1.0
81	x_q#e32#388	1.0
82	x_q#e33#388	1.0
83	x_q#e34#65	1.0
84	x_q#e35#65	1.0
85	x_q#e36#2390	1.0
86	x_q#e37#2390	1.0
87	x_q#e38#243	1.0
88	x_q#e39#243	1.0
89	x_q#e40#43	1.0
90	x_q#e41#43	1.0
91	x_q#e42#92	1.0
92	x_q#e43#92	1.0
93	x_q#e44#34	1.0
94	x_q#e45#34	1.0
95	x_q#e46#34	1.0
96	x_q#e47#34	1.0
97	x_q#e48#36	1.0
98	x_q#e49#36	1.0
99	x_q#e50#40	1.0
100	x_q#e51#40	1.0
101	x_q#e52#29	1.0
102	x_q#e53#29	1.0
103	x_q#e54#99	1.0
104	x_q#e55#99	1.0
105	x_q#e56#80	1.0
106	x_q#e57#80	1.0
107	x_q#e58#39	1.0
108	x_q#e59#39	1.0
